Reading model...
...model read.
creating competitive generators file...
...competitive generators recorded.
Loading data...
.. real-time data read.
Compiling instance...
...instance created.
Creating Offer Mitigation (model will solve as dispatch if TRUE)...
NOTE: storage offers will not be mitigated
...storage offer mitigation file created
Converting model to MPEC...
...converted
NOTE: initial MIP solve with only storage competitive to get feasible solution
Solving...

Welcome to IBM(R) ILOG(R) CPLEX(R) Interactive Optimizer 12.9.0.0
  with Simplex, Mixed Integer & Barrier Optimizers
5725-A06 5725-A29 5724-Y48 5724-Y49 5724-Y54 5724-Y55 5655-Y21
Copyright IBM Corp. 1988, 2019.  All Rights Reserved.

Type 'help' for a list of available commands.
Type 'help' followed by a command name for more
information on commands.

CPLEX> Logfile 'cplex.log' closed.
Logfile 'C:\Users\llavin\Desktop\test85\logs\tmp80ewk_b3.cplex.log' open.
CPLEX> New value for parallel optimization mode: -1
CPLEX> New value for mixed integer optimality gap tolerance: 0.001
CPLEX> New value for deterministic time limit in ticks: 100000
CPLEX> Problem 'C:\Users\llavin\Desktop\test85\logs\tmp5d4asw4v.pyomo.lp' read.
Read time = 0.53 sec. (27.87 ticks)
CPLEX> Problem name         : C:\Users\llavin\Desktop\test85\logs\tmp5d4asw4v.pyomo.lp
Objective sense      : Maximize
Variables            :  107779  [Nneg: 1,  Box: 44054,  Free: 8928,
                                 Binary: 54796]
Objective nonzeros   :   19058
Linear constraints   :  246995  [Less: 82866,  Greater: 118424,  Equal: 45705]
  Nonzeros           :  582461
  RHS nonzeros       :  136319

Variables            : Min LB: -5000.000        Max UB: 1000000.       
Objective nonzeros   : Min   : 0.1583333        Max   : 2500.000       
Linear constraints   :
  Nonzeros           : Min   : 0.1583333        Max   : 1000000.       
  RHS nonzeros       : Min   : 0.1583333        Max   : 1000000.       
CPLEX> CPXPARAM_Parallel                                -1
CPXPARAM_DetTimeLimit                            100000
CPXPARAM_MIP_Tolerances_MIPGap                   0.001
Tried aggregator 3 times.
MIP Presolve eliminated 172874 rows and 33844 columns.
MIP Presolve added 7756 rows and 0 columns.
MIP Presolve modified 51996 coefficients.
Aggregator did 26110 substitutions.
Reduced MIP has 55767 rows, 47441 columns, and 152308 nonzeros.
Reduced MIP has 18817 binaries, 0 generals, 0 SOSs, and 0 indicators.
Presolve time = 0.70 sec. (339.02 ticks)
Probing fixed 727 vars, tightened 8556 bounds.
Probing time = 0.49 sec. (15.86 ticks)
Tried aggregator 2 times.
MIP Presolve eliminated 1679 rows and 1474 columns.
MIP Presolve modified 7108 coefficients.
Aggregator did 72 substitutions.
Reduced MIP has 54016 rows, 45895 columns, and 147180 nonzeros.
Reduced MIP has 18088 binaries, 0 generals, 0 SOSs, and 0 indicators.
Presolve time = 0.41 sec. (273.91 ticks)
Probing fixed 0 vars, tightened 29 bounds.
Probing time = 0.67 sec. (16.74 ticks)
Clique table members: 92580.
MIP emphasis: balance optimality and feasibility.
MIP search method: dynamic search.
Parallel mode: opportunistic, using up to 32 threads.
Root relaxation solution time = 1.27 sec. (2281.79 ticks)

        Nodes                                         Cuts/
   Node  Left     Objective  IInf  Best Integer    Best Bound    ItCnt     Gap

      0     0        0.0000     4                      0.0000    10539         
*     0+    0                            0.0000        0.0000             0.00%
      0     0        cutoff              0.0000        0.0000    10539    0.00%
Elapsed time = 4.47 sec. (3426.49 ticks, tree = 0.01 MB, solutions = 1)

Root node processing (before b&c):
  Real time             =    4.52 sec. (3430.49 ticks)
Parallel b&c, 32 threads:
  Real time             =    0.00 sec. (0.00 ticks)
  Sync time (average)   =    0.00 sec.
  Wait time (average)   =    0.00 sec.
                          ------------
Total (root+branch&cut) =    4.52 sec. (3430.49 ticks)

Solution pool: 1 solution saved.

MIP - Integer optimal solution:  Objective =  0.0000000000e+00
Solution time =    4.55 sec.  Iterations = 10539  Nodes = 0
Deterministic time = 3430.80 ticks  (754.52 ticks/sec)

CPLEX> Incumbent solution written to file 'C:\Users\llavin\Desktop\test85\logs\tmpyhr8a3sc.cplex.sol'.
CPLEX> NOTE: no warmstart specified for MIP iteration, default behavior is true
NOTE: resolving with all competitive generators using storage-only solution to warmstart
Solving...

Welcome to IBM(R) ILOG(R) CPLEX(R) Interactive Optimizer 12.9.0.0
  with Simplex, Mixed Integer & Barrier Optimizers
5725-A06 5725-A29 5724-Y48 5724-Y49 5724-Y54 5724-Y55 5655-Y21
Copyright IBM Corp. 1988, 2019.  All Rights Reserved.

Type 'help' for a list of available commands.
Type 'help' followed by a command name for more
information on commands.

CPLEX> Logfile 'cplex.log' closed.
Logfile 'C:\Users\llavin\Desktop\test85\logs\tmpf0145v3g.cplex.log' open.
CPLEX> New value for parallel optimization mode: -1
CPLEX> New value for mixed integer optimality gap tolerance: 0.001
CPLEX> New value for deterministic time limit in ticks: 100000
CPLEX> Problem 'C:\Users\llavin\Desktop\test85\logs\tmpaivbsvet.pyomo.lp' read.
Read time = 0.52 sec. (27.92 ticks)
CPLEX> MIP start file 'C:\Users\llavin\Desktop\test85\logs\tmpkiazm3hj.cplex.mst' read.
CPLEX> Problem name         : C:\Users\llavin\Desktop\test85\logs\tmpaivbsvet.pyomo.lp
Objective sense      : Maximize
Variables            :  109219  [Nneg: 1,  Box: 45494,  Free: 8928,
                                 Binary: 54796]
Objective nonzeros   :   20450
Linear constraints   :  246995  [Less: 82866,  Greater: 118424,  Equal: 45705]
  Nonzeros           :  582461
  RHS nonzeros       :  136319

Variables            : Min LB: -5000.000        Max UB: 1000000.       
Objective nonzeros   : Min   : 0.1583333        Max   : 2500.000       
Linear constraints   :
  Nonzeros           : Min   : 0.1583333        Max   : 1000000.       
  RHS nonzeros       : Min   : 0.1583333        Max   : 1000000.       
CPLEX> CPXPARAM_Parallel                                -1
CPXPARAM_DetTimeLimit                            100000
CPXPARAM_MIP_Tolerances_MIPGap                   0.001
1 of 1 MIP starts provided solutions.
MIP start 'm1' defined initial solution with objective 0.0000.
Tried aggregator 3 times.
MIP Presolve eliminated 172874 rows and 35284 columns.
MIP Presolve added 7756 rows and 0 columns.
MIP Presolve modified 51996 coefficients.
Aggregator did 26110 substitutions.
Reduced MIP has 55767 rows, 47441 columns, and 152308 nonzeros.
Reduced MIP has 18817 binaries, 0 generals, 0 SOSs, and 0 indicators.
Presolve time = 0.59 sec. (339.75 ticks)
Probing fixed 727 vars, tightened 8556 bounds.
Probing time = 0.41 sec. (15.86 ticks)
Tried aggregator 2 times.
MIP Presolve eliminated 1679 rows and 1474 columns.
MIP Presolve modified 7108 coefficients.
Aggregator did 72 substitutions.
Reduced MIP has 54016 rows, 45895 columns, and 147180 nonzeros.
Reduced MIP has 18088 binaries, 0 generals, 0 SOSs, and 0 indicators.
Presolve time = 0.31 sec. (273.92 ticks)
Probing fixed 0 vars, tightened 29 bounds.
Probing time = 0.61 sec. (16.98 ticks)
Clique table members: 92485.
MIP emphasis: balance optimality and feasibility.
MIP search method: dynamic search.
Parallel mode: opportunistic, using up to 32 threads.
Root relaxation solution time = 1.31 sec. (2330.83 ticks)

        Nodes                                         Cuts/
   Node  Left     Objective  IInf  Best Integer    Best Bound    ItCnt     Gap

*     0+    0                            0.0000   1.29580e+07              --- 
      0     0        cutoff              0.0000        0.0000    11438    0.00%
      0     0        cutoff              0.0000        0.0000    11438    0.00%
Elapsed time = 4.17 sec. (3570.29 ticks, tree = 0.01 MB, solutions = 1)

Root node processing (before b&c):
  Real time             =    4.19 sec. (3572.94 ticks)
Parallel b&c, 32 threads:
  Real time             =    0.00 sec. (0.00 ticks)
  Sync time (average)   =    0.00 sec.
  Wait time (average)   =    0.00 sec.
                          ------------
Total (root+branch&cut) =    4.19 sec. (3572.94 ticks)

Solution pool: 1 solution saved.

MIP - Integer optimal solution:  Objective =  0.0000000000e+00
Solution time =    4.20 sec.  Iterations = 11438  Nodes = 0
Deterministic time = 3573.25 ticks  (850.17 ticks/sec)

CPLEX> Incumbent solution written to file 'C:\Users\llavin\Desktop\test85\logs\tmpvo0tg6t4.cplex.sol'.
CPLEX> Exporting results... 
